NAME : morphed20-2-11
COMMENT : Generated using the function morphInstances from the R-package netgen (Bossek,2015) - Number of clusters: 2 Alpha: 0.5
TYPE : TSP
DIMENSION : 20
EDGE_WEIGHT_TYPE : EUC_2D
NODE_COORD_SECTION
1 22.8885280469 20.212853367
2 29.6447165369 83.8633852516
3 59.1255494278 62.9589001457
4 2.531707915 27.7857809473
5 5.3660148845 9.2325880513
6 88.9607799259 71.1550483387
7 6.4034684734 29.285612572
8 19.1416923483 7.1424754966
9 83.2290163136 46.5032139387
10 11.6907102651 31.690341086
11 15.4879268045 38.8475318419
12 54.449286849 63.9938243298
13 83.7250583534 66.2786942155
14 77.5262404392 52.4698063772
15 72.5694305827 88.6817840254
16 61.4443035194 74.815860186
17 55.5828432563 52.1899545277
18 23.9225439284 11.856121552
19 13.8636538287 21.0230205488
20 30.5264163402 8.8430464046
EOF
